c Generated map
c Size: 8 * 8, weights in range: 1 to 10, walls: True, with ratio 0.1
c dim 9 of 10
c
p sp 64 92
c graph contains 64 nodes and 92 arcs
c
a 1 9 9
a 9 1 9
a 1 2 8
a 2 1 8
a 2 10 2
a 10 2 2
a 2 3 4
a 3 2 4
a 3 11 7
a 11 3 7
a 3 4 3
a 4 3 3
a 4 12 8
a 12 4 8
a 4 5 3
a 5 4 3
a 5 13 10
a 13 5 10
a 7 15 6
a 15 7 6
a 7 8 3
a 8 7 3
a 8 16 8
a 16 8 8
a 9 17 10
a 17 9 10
a 9 10 5
a 10 9 5
a 10 11 9
a 11 10 9
a 11 19 9
a 19 11 9
a 11 12 8
a 12 11 8
a 12 20 9
a 20 12 9
a 12 13 4
a 13 12 4
a 13 21 8
a 21 13 8
a 13 14 4
a 14 13 4
a 14 22 2
a 22 14 2
a 14 15 3
a 15 14 3
a 15 23 8
a 23 15 8
a 15 16 4
a 16 15 4
a 16 24 3
a 24 16 3
a 17 25 8
a 25 17 8
a 19 27 8
a 27 19 8
a 19 20 1
a 20 19 1
a 20 28 1
a 28 20 1
a 20 21 6
a 21 20 6
a 21 29 6
a 29 21 6
a 21 22 9
a 22 21 9
a 22 30 5
a 30 22 5
a 22 23 3
a 23 22 3
a 23 31 4
a 31 23 4
a 23 24 3
a 24 23 3
a 24 32 5
a 32 24 5
a 25 33 6
a 33 25 6
a 25 26 6
a 26 25 6
a 26 34 5
a 34 26 5
a 26 27 5
a 27 26 5
a 27 35 4
a 35 27 4
a 27 28 3
a 28 27 3
a 28 36 7
a 36 28 7
a 28 29 3
a 29 28 3
a 29 37 8
a 37 29 8
a 29 30 3
a 30 29 3
a 30 38 8
a 38 30 8
a 30 31 4
a 31 30 4
a 31 39 9
a 39 31 9
a 31 32 4
a 32 31 4
a 32 40 5
a 40 32 5
a 33 41 8
a 41 33 8
a 33 34 1
a 34 33 1
a 34 42 3
a 42 34 3
a 34 35 5
a 35 34 5
a 35 36 2
a 36 35 2
a 36 44 8
a 44 36 8
a 36 37 5
a 37 36 5
a 37 38 3
a 38 37 3
a 38 46 10
a 46 38 10
a 38 39 5
a 39 38 5
a 39 47 3
a 47 39 3
a 39 40 3
a 40 39 3
a 40 48 8
a 48 40 8
a 41 49 10
a 49 41 10
a 41 42 4
a 42 41 4
a 42 50 3
a 50 42 3
a 44 52 8
a 52 44 8
a 46 54 2
a 54 46 2
a 46 47 5
a 47 46 5
a 47 55 3
a 55 47 3
a 47 48 5
a 48 47 5
a 49 50 4
a 50 49 4
a 50 58 6
a 58 50 6
a 50 51 7
a 51 50 7
a 51 59 6
a 59 51 6
a 51 52 7
a 52 51 7
a 52 60 5
a 60 52 5
a 52 53 9
a 53 52 9
a 53 61 1
a 61 53 1
a 53 54 8
a 54 53 8
a 54 62 9
a 62 54 9
a 54 55 2
a 55 54 2
a 55 63 9
a 63 55 9
a 58 59 8
a 59 58 8
a 59 60 2
a 60 59 2
a 60 61 5
a 61 60 5
a 61 62 10
a 62 61 10
a 62 63 10
a 63 62 10
a 63 64 9
a 64 63 9
